Minimize
	value: tt

Subject to
tt + 2000 s_1_1 > 0
tt - t_1_1 - 2000.000000 s_1_1 > -1993.617000
tt + 2000 s_2_1 > 0
tt - t_2_1 - 2000.000000 s_2_1 > -1992.010875
tt + 2000 s_1_2 > 0
tt - t_1_2 - 2000.000000 s_1_2 > -1988.521000
tt + 2000 s_2_2 > 0
tt - t_2_2 - 2000.000000 s_2_2 > -1986.060238
tt + 2000 s_1_3 > 0
tt - t_1_3 - 2000.000000 s_1_3 > -1998.726600
tt + 2000 s_2_3 > 0
tt - t_2_3 - 2000.000000 s_2_3 > -1997.896571
tt + 2000 s_1_4 > 0
tt - t_1_4 - 2000.000000 s_1_4 > -1998.249300
tt + 2000 s_2_4 > 0
tt - t_2_4 - 2000.000000 s_2_4 > -1996.831667
tt + 2000 s_1_5 > 0
tt - t_1_5 - 2020.809280 s_1_5 + 20.809280 s_1_2 > -1999.911889
tt + 2000 s_2_5 > 0
tt - t_2_5 - 2061.651680 s_2_5 + 61.651680 s_2_2 > -1999.055167
s_1_1 + s_2_1  = 1
s_1_2 + s_2_2  = 1
s_1_3 + s_2_3  = 1
s_1_4 + s_2_4  = 1
s_1_5 + s_2_5  = 1
t_1_1 - t_1_2 + 2000.000000 u_1_1_2 > 11.479000
t_1_2 - t_1_1 - 2000.000000 u_1_1_2 > -1993.617000
t_2_1 - t_2_2 + 2000.000000 u_2_1_2 > 13.939762
t_2_2 - t_2_1 - 2000.000000 u_2_1_2 > -1992.010875
t_1_1 - t_1_3 + 2000.000000 u_1_1_3 > 1.273400
t_1_3 - t_1_1 - 2000.000000 u_1_1_3 > -1993.617000
t_2_1 - t_2_3 + 2000.000000 u_2_1_3 > 2.103429
t_2_3 - t_2_1 - 2000.000000 u_2_1_3 > -1992.010875
t_1_1 - t_1_4 + 2000.000000 u_1_1_4 > 1.750700
t_1_4 - t_1_1 - 2000.000000 u_1_1_4 > -1993.617000
t_2_1 - t_2_4 + 2000.000000 u_2_1_4 > 3.168333
t_2_4 - t_2_1 - 2000.000000 u_2_1_4 > -1992.010875
t_1_5 - t_1_1 - 2000.000000 s_1_1 > -1989.160080
t_1_5 - t_2_1 - 2000.000000 s_2_1 > -1975.684971
t_2_5 - t_1_1 - 2000.000000 s_1_1 > -1989.160080
t_2_5 - t_2_1 - 2000.000000 s_2_1 > -1975.684971
t_1_2 - t_1_1 + 2000.000000 u_1_2_1 > 6.383000
t_1_1 - t_1_2 - 2000.000000 u_1_2_1 > -1988.521000
t_2_2 - t_2_1 + 2000.000000 u_2_2_1 > 7.989125
t_2_1 - t_2_2 - 2000.000000 u_2_2_1 > -1986.060238
t_1_2 - t_1_3 + 2000.000000 u_1_2_3 > 1.273400
t_1_3 - t_1_2 - 2000.000000 u_1_2_3 > -1988.521000
t_2_2 - t_2_3 + 2000.000000 u_2_2_3 > 2.103429
t_2_3 - t_2_2 - 2000.000000 u_2_2_3 > -1986.060238
t_1_2 - t_1_4 + 2000.000000 u_1_2_4 > 1.750700
t_1_4 - t_1_2 - 2000.000000 u_1_2_4 > -1988.521000
t_2_2 - t_2_4 + 2000.000000 u_2_2_4 > 3.168333
t_2_4 - t_2_2 - 2000.000000 u_2_2_4 > -1986.060238
t_1_5 - t_1_2 - 2000.000000 s_1_2 > -1984.064080
t_1_5 - t_2_2 - 2000.000000 s_2_2 > -1969.734334
t_2_5 - t_1_2 - 2000.000000 s_1_2 > -1984.064080
t_2_5 - t_2_2 - 2000.000000 s_2_2 > -1969.734334
t_1_3 - t_1_1 + 2000.000000 u_1_3_1 > 6.383000
t_1_1 - t_1_3 - 2000.000000 u_1_3_1 > -1998.726600
t_2_3 - t_2_1 + 2000.000000 u_2_3_1 > 7.989125
t_2_1 - t_2_3 - 2000.000000 u_2_3_1 > -1997.896571
t_1_3 - t_1_2 + 2000.000000 u_1_3_2 > 11.479000
t_1_2 - t_1_3 - 2000.000000 u_1_3_2 > -1998.726600
t_2_3 - t_2_2 + 2000.000000 u_2_3_2 > 13.939762
t_2_2 - t_2_3 - 2000.000000 u_2_3_2 > -1997.896571
t_1_3 - t_1_4 + 2000.000000 u_1_3_4 > 1.750700
t_1_4 - t_1_3 - 2000.000000 u_1_3_4 > -1998.726600
t_2_3 - t_2_4 + 2000.000000 u_2_3_4 > 3.168333
t_2_4 - t_2_3 - 2000.000000 u_2_3_4 > -1997.896571
t_1_5 - t_1_3 - 2000.000000 s_1_3 > -1994.269680
t_1_5 - t_2_3 - 2000.000000 s_2_3 > -1981.570667
t_2_5 - t_1_3 - 2000.000000 s_1_3 > -1994.269680
t_2_5 - t_2_3 - 2000.000000 s_2_3 > -1981.570667
t_1_4 - t_1_1 + 2000.000000 u_1_4_1 > 6.383000
t_1_1 - t_1_4 - 2000.000000 u_1_4_1 > -1998.249300
t_2_4 - t_2_1 + 2000.000000 u_2_4_1 > 7.989125
t_2_1 - t_2_4 - 2000.000000 u_2_4_1 > -1996.831667
t_1_4 - t_1_2 + 2000.000000 u_1_4_2 > 11.479000
t_1_2 - t_1_4 - 2000.000000 u_1_4_2 > -1998.249300
t_2_4 - t_2_2 + 2000.000000 u_2_4_2 > 13.939762
t_2_2 - t_2_4 - 2000.000000 u_2_4_2 > -1996.831667
t_1_4 - t_1_3 + 2000.000000 u_1_4_3 > 1.273400
t_1_3 - t_1_4 - 2000.000000 u_1_4_3 > -1998.249300
t_2_4 - t_2_3 + 2000.000000 u_2_4_3 > 2.103429
t_2_3 - t_2_4 - 2000.000000 u_2_4_3 > -1996.831667
t_1_5 - t_1_4 - 2000.000000 s_1_4 > -1993.792380
t_1_5 - t_2_4 - 2000.000000 s_2_4 > -1980.505763
t_2_5 - t_1_4 - 2000.000000 s_1_4 > -1993.792380
t_2_5 - t_2_4 - 2000.000000 s_2_4 > -1980.505763
t_1_5 - t_1_1 - 2000.000000 s_1_1 > -1989.160080
t_1_5 - t_2_1 - 2000.000000 s_2_1 > -1975.684971
t_2_5 - t_1_1 - 2000.000000 s_1_1 > -1989.160080
t_2_5 - t_2_1 - 2000.000000 s_2_1 > -1975.684971
t_1_5 - t_1_2 - 2000.000000 s_1_2 > -1984.064080
t_1_5 - t_2_2 - 2000.000000 s_2_2 > -1969.734334
t_2_5 - t_1_2 - 2000.000000 s_1_2 > -1984.064080
t_2_5 - t_2_2 - 2000.000000 s_2_2 > -1969.734334
t_1_5 - t_1_3 - 2000.000000 s_1_3 > -1994.269680
t_1_5 - t_2_3 - 2000.000000 s_2_3 > -1981.570667
t_2_5 - t_1_3 - 2000.000000 s_1_3 > -1994.269680
t_2_5 - t_2_3 - 2000.000000 s_2_3 > -1981.570667
t_1_5 - t_1_4 - 2000.000000 s_1_4 > -1993.792380
t_1_5 - t_2_4 - 2000.000000 s_2_4 > -1980.505763
t_2_5 - t_1_4 - 2000.000000 s_1_4 > -1993.792380
t_2_5 - t_2_4 - 2000.000000 s_2_4 > -1980.505763
Binary
s_1_1
s_2_1
s_1_2
s_2_2
s_1_3
s_2_3
s_1_4
s_2_4
s_1_5
s_2_5
u_1_1_2
u_2_1_2
u_1_1_3
u_2_1_3
u_1_1_4
u_2_1_4
u_1_2_1
u_2_2_1
u_1_2_3
u_2_2_3
u_1_2_4
u_2_2_4
u_1_3_1
u_2_3_1
u_1_3_2
u_2_3_2
u_1_3_4
u_2_3_4
u_1_4_1
u_2_4_1
u_1_4_2
u_2_4_2
u_1_4_3
u_2_4_3

End
